p cnf 150 386
1 4 7 10 13 16 19 22 25 28 31 34 37 40 43 46 49 52 55 58 61 64 67 70 73 76 79 82 85 88 91 94 97 100 103 106 109 112 115 118 121 124 127 130 133 136 139 142 145 148 0
2 5 8 11 14 17 20 23 26 29 32 35 38 41 44 47 50 53 56 59 62 65 68 71 74 77 80 83 86 89 92 95 98 101 104 107 110 113 116 119 122 125 128 131 134 137 140 143 146 149 0
3 6 9 12 15 18 21 24 27 30 33 36 39 42 45 48 51 54 57 60 63 66 69 72 75 78 81 84 87 90 93 96 99 102 105 108 111 114 117 120 123 126 129 132 135 138 141 144 147 150 0
1 2 3 0
-1 -2 0
-1 -3 0
-2 -3 0
-1 -4 0
-2 -5 0
-3 -6 0
-1 -37 0
-2 -38 0
-3 -39 0
-1 -76 0
-2 -77 0
-3 -78 0
-1 -97 0
-2 -98 0
-3 -99 0
-1 -133 0
-2 -134 0
-3 -135 0
4 5 6 0
-4 -5 0
-4 -6 0
-5 -6 0
-4 -127 0
-5 -128 0
-6 -129 0
7 8 9 0
-7 -8 0
-7 -9 0
-8 -9 0
-7 -16 0
-8 -17 0
-9 -18 0
10 11 12 0
-10 -11 0
-10 -12 0
-11 -12 0
-10 -13 0
-11 -14 0
-12 -15 0
-10 -61 0
-11 -62 0
-12 -63 0
-10 -115 0
-11 -116 0
-12 -117 0
-10 -136 0
-11 -137 0
-12 -138 0
13 14 15 0
-13 -14 0
-13 -15 0
-14 -15 0
-13 -97 0
-14 -98 0
-15 -99 0
-13 -118 0
-14 -119 0
-15 -120 0
-13 -142 0
-14 -143 0
-15 -144 0
16 17 18 0
-16 -17 0
-16 -18 0
-17 -18 0
-16 -115 0
-17 -116 0
-18 -117 0
19 20 21 0
-19 -20 0
-19 -21 0
-20 -21 0
22 23 24 0
-22 -23 0
-22 -24 0
-23 -24 0
-22 -61 0
-23 -62 0
-24 -63 0
-22 -82 0
-23 -83 0
-24 -84 0
25 26 27 0
-25 -26 0
-25 -27 0
-26 -27 0
-25 -94 0
-26 -95 0
-27 -96 0
-25 -142 0
-26 -143 0
-27 -144 0
28 29 30 0
-28 -29 0
-28 -30 0
-29 -30 0
-28 -55 0
-29 -56 0
-30 -57 0
31 32 33 0
-31 -32 0
-31 -33 0
-32 -33 0
34 35 36 0
-34 -35 0
-34 -36 0
-35 -36 0
-34 -97 0
-35 -98 0
-36 -99 0
-34 -130 0
-35 -131 0
-36 -132 0
37 38 39 0
-37 -38 0
-37 -39 0
-38 -39 0
-37 -43 0
-38 -44 0
-39 -45 0
-37 -64 0
-38 -65 0
-39 -66 0
-37 -85 0
-38 -86 0
-39 -87 0
-37 -136 0
-38 -137 0
-39 -138 0
40 41 42 0
-40 -41 0
-40 -42 0
-41 -42 0
43 44 45 0
-43 -44 0
-43 -45 0
-44 -45 0
-43 -46 0
-44 -47 0
-45 -48 0
-43 -52 0
-44 -53 0
-45 -54 0
-43 -118 0
-44 -119 0
-45 -120 0
46 47 48 0
-46 -47 0
-46 -48 0
-47 -48 0
-46 -76 0
-47 -77 0
-48 -78 0
-46 -79 0
-47 -80 0
-48 -81 0
49 50 51 0
-49 -50 0
-49 -51 0
-50 -51 0
52 53 54 0
-52 -53 0
-52 -54 0
-53 -54 0
-52 -94 0
-53 -95 0
-54 -96 0
-52 -124 0
-53 -125 0
-54 -126 0
55 56 57 0
-55 -56 0
-55 -57 0
-56 -57 0
58 59 60 0
-58 -59 0
-58 -60 0
-59 -60 0
-58 -97 0
-59 -98 0
-60 -99 0
-58 -100 0
-59 -101 0
-60 -102 0
61 62 63 0
-61 -62 0
-61 -63 0
-62 -63 0
64 65 66 0
-64 -65 0
-64 -66 0
-65 -66 0
-64 -73 0
-65 -74 0
-66 -75 0
67 68 69 0
-67 -68 0
-67 -69 0
-68 -69 0
-67 -91 0
-68 -92 0
-69 -93 0
-67 -100 0
-68 -101 0
-69 -102 0
-67 -133 0
-68 -134 0
-69 -135 0
70 71 72 0
-70 -71 0
-70 -72 0
-71 -72 0
73 74 75 0
-73 -74 0
-73 -75 0
-74 -75 0
-73 -88 0
-74 -89 0
-75 -90 0
-73 -127 0
-74 -128 0
-75 -129 0
-73 -142 0
-74 -143 0
-75 -144 0
76 77 78 0
-76 -77 0
-76 -78 0
-77 -78 0
-76 -130 0
-77 -131 0
-78 -132 0
-76 -145 0
-77 -146 0
-78 -147 0
79 80 81 0
-79 -80 0
-79 -81 0
-80 -81 0
-79 -85 0
-80 -86 0
-81 -87 0
-79 -97 0
-80 -98 0
-81 -99 0
82 83 84 0
-82 -83 0
-82 -84 0
-83 -84 0
-82 -100 0
-83 -101 0
-84 -102 0
-82 -109 0
-83 -110 0
-84 -111 0
-82 -127 0
-83 -128 0
-84 -129 0
85 86 87 0
-85 -86 0
-85 -87 0
-86 -87 0
-85 -130 0
-86 -131 0
-87 -132 0
-85 -136 0
-86 -137 0
-87 -138 0
88 89 90 0
-88 -89 0
-88 -90 0
-89 -90 0
91 92 93 0
-91 -92 0
-91 -93 0
-92 -93 0
-91 -145 0
-92 -146 0
-93 -147 0
94 95 96 0
-94 -95 0
-94 -96 0
-95 -96 0
97 98 99 0
-97 -98 0
-97 -99 0
-98 -99 0
-97 -100 0
-98 -101 0
-99 -102 0
-97 -109 0
-98 -110 0
-99 -111 0
100 101 102 0
-100 -101 0
-100 -102 0
-101 -102 0
-100 -127 0
-101 -128 0
-102 -129 0
103 104 105 0
-103 -104 0
-103 -105 0
-104 -105 0
-103 -115 0
-104 -116 0
-105 -117 0
106 107 108 0
-106 -107 0
-106 -108 0
-107 -108 0
109 110 111 0
-109 -110 0
-109 -111 0
-110 -111 0
112 113 114 0
-112 -113 0
-112 -114 0
-113 -114 0
-112 -142 0
-113 -143 0
-114 -144 0
115 116 117 0
-115 -116 0
-115 -117 0
-116 -117 0
118 119 120 0
-118 -119 0
-118 -120 0
-119 -120 0
121 122 123 0
-121 -122 0
-121 -123 0
-122 -123 0
-121 -124 0
-122 -125 0
-123 -126 0
124 125 126 0
-124 -125 0
-124 -126 0
-125 -126 0
127 128 129 0
-127 -128 0
-127 -129 0
-128 -129 0
-127 -136 0
-128 -137 0
-129 -138 0
130 131 132 0
-130 -131 0
-130 -132 0
-131 -132 0
133 134 135 0
-133 -134 0
-133 -135 0
-134 -135 0
-133 -145 0
-134 -146 0
-135 -147 0
136 137 138 0
-136 -137 0
-136 -138 0
-137 -138 0
139 140 141 0
-139 -140 0
-139 -141 0
-140 -141 0
142 143 144 0
-142 -143 0
-142 -144 0
-143 -144 0
-142 -145 0
-143 -146 0
-144 -147 0
145 146 147 0
-145 -146 0
-145 -147 0
-146 -147 0
148 149 150 0
-148 -149 0
-148 -150 0
-149 -150 0
